50
    1   303   251
    2   211   231
    3   559   597
    4    88    70
    5    34    15
    6   196   157
    7    11    56
    8   294   263
    9   321   376
   10   159   181
   11   597   583
   12   537   518
   13   436   407
   14    57    63
   15   282   312
   16     1    24
   17   221   256
   18   169   115
   19   379   372
   20   652   593
   21   292   280
   22    17    19
   23     1    15
   24   309   354
   25   352   384
   26   354   307
   27   447   405
   28   575   571
   29   312   281
   30   393   378
   31   126    69
   32   314   319
   33   270   327
   34   194   232
   35    57    23
   36   526   492
   37   619   559
   38   200   208
   39   441   447
   40   153   146
   41    47    58
   42   233   229
   43   355   369
   44   589   553
   45   358   418
   46   613   574
   47   405   373
   48   263   205
   49   631   594
   50   403   395
601
